proyfinal/src/viki/013/experimentInOfficeAgust.take6.output/b1842fb8-ae44-41f5-9f99-b67e7414868a.als.dat
{'cnf.clauses': '118081',
 'cnf.totvars': '69608',
 'conflict literals': '35',
 'conflicts': '19',
 'decisions': '5547',
 'memused.mb': '16.12',
 'outcome': 'UNSAT',
 'propagations': '29065',
 'restarts': '1',
 'solver.msecs': 35,
 'task.msecs': 86}
