proyfinal/src/viki/013/experimentInOfficeAgust.take6.output/b1842fb8-ae44-41f5-9f99-b67e7414868a.als.out
Reading from standard input... Use '--help' for help.
============================[ Problem Statistics ]=============================
|                                                                             |
|  Number of variables:         69608                                         |
|  Number of clauses:          118081                                         |
|  Parse time:                   0.03 s                                       |
|                                                                             |
============================[ Search Statistics ]==============================
| Conflicts |          ORIGINAL         |          LEARNT          | Progress |
|           |    Vars  Clauses Literals |    Limit  Clauses Lit/Cl |          |
===============================================================================
===============================================================================
restarts              : 1
conflicts             : 19             (536 /sec)
decisions             : 5547           (0.00 % random) (156469 /sec)
propagations          : 29065          (819864 /sec)
conflict literals     : 35             (0.00 % deleted)
Memory used           : 16.12 MB
CPU time              : 0.035451 s

UNSATISFIABLE
